networks/zoo_64_793/zoo_64_793-lower.txt
Number of groups: 31
Flow 11: {1 4 0} {4 23 0} {23 31 0} {31 14 0} {14 46 0} 
Flow 31: {2 7 0} {7 5 0} {5 6 0} {6 38 0} 
Flow 64: {3 13 0} {13 45 0} 
Flow 73: {26 22 0} {22 54 0} 
Flow 102: {4 24 0} {24 56 0} 
Flow 146: {6 10 0} {10 42 0} 
Flow 172: {7 8 0} {8 40 0} 
Flow 196: {8 7 0} {7 2 0} {2 34 0} 
Flow 234: {9 10 0} {10 18 0} {18 17 0} {17 16 0} {16 48 0} 
Flow 257: {10 9 0} {9 41 0} 
Flow 265: {10 19 0} {19 51 0} 
Flow 298: {11 12 0} {12 29 0} {29 61 0} 
Flow 338: {13 28 0} {28 29 0} {29 12 0} {12 44 0} 
Flow 377: {14 31 0} {31 63 0} 
Flow 384: {27 12 0} {12 31 0} {31 7 0} {7 39 0} 
Flow 401: {15 26 0} {26 58 0} 
Flow 439: {5 37 0} 
Flow 453: {16 15 0} {15 21 0} {21 53 0} 
Flow 480: {17 49 0} 
Flow 482: {18 10 0} {10 6 0} {6 5 0} {5 7 0} {7 31 0} {31 20 0} {20 52 0} 
Flow 485: {23 55 0} 
Flow 494: {20 31 0} {31 23 0} {23 4 0} {4 36 0} 
Flow 523: {21 15 0} {15 25 0} {25 57 0} 
Flow 551: {22 26 0} {26 27 0} {27 59 0} 
Flow 587: {24 3 0} {3 35 0} 
Flow 625: {25 15 0} {15 16 0} {16 17 0} {17 18 0} {18 50 0} 
Flow 673: {28 13 0} {13 3 0} {3 24 0} {24 4 0} {4 1 0} {1 33 0} 
Flow 715: {29 28 0} {28 60 0} 
Flow 727: {30 31 0} {31 12 0} {12 27 0} {27 26 0} {26 15 0} {15 47 0} 
Flow 769: {31 32 0} {32 64 0} 
Flow 792: {32 31 0} {31 30 0} {30 62 0} 
Time taken running everything: 2 seconds
