networks/zoo_64_793/zoo_64_793-lower.sol
<?xml version = "1.0" encoding="UTF-8" standalone="yes"?>
<CPLEXSolution version="1.2">
 <header
   problemName="networks/zoo_64_793/zoo_64_793-lower.lp"
   solutionName="incumbent"
   solutionIndex="-1"
   objectiveValue="31"
   solutionTypeValue="3"
   solutionTypeString="primal"
   solutionStatusValue="101"
   solutionStatusString="integer optimal solution"
   solutionMethodString="mip"
   primalFeasible="1"
   dualFeasible="1"
   MIPNodes="0"
   MIPIterations="0"
   writeLevel="3"/>
 <quality
   epInt="1.0000000000000001e-05"
   epRHS="9.9999999999999995e-07"
   maxIntInfeas="0"
   maxPrimalInfeas="0"
   maxX="1"
   maxSlack="1"/>
 <variables>
  <variable name="Y(1,2)" index="1" value="1"/>
  <variable name="Y(2,3)" index="65" value="1"/>
  <variable name="Y(3,4)" index="129" value="1"/>
  <variable name="Y(4,5)" index="193" value="1"/>
  <variable name="Y(5,6)" index="257" value="1"/>
  <variable name="Y(6,7)" index="321" value="1"/>
  <variable name="Y(7,8)" index="385" value="1"/>
  <variable name="Y(8,10)" index="450" value="1"/>
  <variable name="Y(9,12)" index="515" value="1"/>
  <variable name="Y(10,13)" index="579" value="1"/>
  <variable name="Y(11,14)" index="643" value="1"/>
  <variable name="Y(12,15)" index="707" value="1"/>
  <variable name="Y(13,16)" index="771" value="1"/>
  <variable name="Y(14,17)" index="835" value="1"/>
  <variable name="Y(15,18)" index="899" value="1"/>
  <variable name="Y(16,19)" index="963" value="1"/>
  <variable name="Y(17,20)" index="1027" value="1"/>
  <variable name="Y(18,21)" index="1091" value="1"/>
  <variable name="Y(19,23)" index="1156" value="1"/>
  <variable name="Y(20,24)" index="1220" value="1"/>
  <variable name="Y(21,25)" index="1284" value="1"/>
  <variable name="Y(22,26)" index="1348" value="1"/>
  <variable name="Y(23,27)" index="1412" value="1"/>
  <variable name="Y(24,28)" index="1476" value="1"/>
  <variable name="Y(25,29)" index="1540" value="1"/>
  <variable name="Y(26,30)" index="1604" value="1"/>
  <variable name="Y(27,31)" index="1668" value="1"/>
  <variable name="Y(54,1)" index="3339" value="1"/>
  <variable name="Y(61,9)" index="3788" value="1"/>
  <variable name="Y(73,22)" index="4557" value="1"/>
  <variable name="Y(83,32)" index="5197" value="1"/>
  <variable name="X(1,4,1)" index="49959" value="1"/>
  <variable name="X(1,33,54)" index="50805" value="1"/>
  <variable name="X(2,7,28)" index="51572" value="1"/>
  <variable name="X(2,34,1)" index="52338" value="1"/>
  <variable name="X(3,13,10)" index="53140" value="1"/>
  <variable name="X(3,24,54)" index="53977" value="1"/>
  <variable name="X(3,35,2)" index="54718" value="1"/>
  <variable name="X(4,1,54)" index="55563" value="1"/>
  <variable name="X(4,23,1)" index="56303" value="1"/>
  <variable name="X(4,24,2)" index="57097" value="1"/>
  <variable name="X(4,36,3)" index="57891" value="1"/>
  <variable name="X(5,6,5)" index="58686" value="1"/>
  <variable name="X(5,7,110)" index="59584" value="1"/>
  <variable name="X(5,37,4)" index="60271" value="1"/>
  <variable name="X(6,5,140)" index="61200" value="1"/>
  <variable name="X(6,10,8)" index="61861" value="1"/>
  <variable name="X(6,38,5)" index="62651" value="1"/>
  <variable name="X(7,2,1)" index="63440" value="1"/>
  <variable name="X(7,5,4)" index="64236" value="1"/>
  <variable name="X(7,8,7)" index="65032" value="1"/>
  <variable name="X(7,31,28)" index="65846" value="1"/>
  <variable name="X(7,39,6)" index="66617" value="1"/>
  <variable name="X(8,7,196)" index="67600" value="1"/>
  <variable name="X(8,40,7)" index="68204" value="1"/>
  <variable name="X(9,10,222)" index="69212" value="1"/>
  <variable name="X(9,41,61)" index="69844" value="1"/>
  <variable name="X(10,6,222)" index="70798" value="1"/>
  <variable name="X(10,9,61)" index="71430" value="1"/>
  <variable name="X(10,18,14)" index="72176" value="1"/>
  <variable name="X(10,19,16)" index="72971" value="1"/>
  <variable name="X(10,42,8)" index="73756" value="1"/>
  <variable name="X(11,12,279)" index="74820" value="1"/>
  <variable name="X(12,27,12)" index="75346" value="1"/>
  <variable name="X(12,29,25)" index="76152" value="1"/>
  <variable name="X(12,31,279)" index="77199" value="1"/>
  <variable name="X(12,44,9)" index="77722" value="1"/>
  <variable name="X(13,3,280)" index="78786" value="1"/>
  <variable name="X(13,28,24)" index="79323" value="1"/>
  <variable name="X(13,45,10)" index="80102" value="1"/>
  <variable name="X(14,31,352)" index="81237" value="1"/>
  <variable name="X(14,46,11)" index="81689" value="1"/>
  <variable name="X(15,16,13)" index="82484" value="1"/>
  <variable name="X(15,21,18)" index="83282" value="1"/>
  <variable name="X(15,25,21)" index="84078" value="1"/>
  <variable name="X(15,26,243)" index="85093" value="1"/>
  <variable name="X(15,47,12)" index="85655" value="1"/>
  <variable name="X(16,15,122)" index="86558" value="1"/>
  <variable name="X(16,17,68)" index="87297" value="1"/>
  <variable name="X(16,48,13)" index="88035" value="1"/>
  <variable name="X(17,16,39)" index="88854" value="1"/>
  <variable name="X(17,18,316)" index="89924" value="1"/>
  <variable name="X(17,49,14)" index="90415" value="1"/>
  <variable name="X(18,10,383)" index="91577" value="1"/>
  <variable name="X(18,17,14)" index="92001" value="1"/>
  <variable name="X(18,50,15)" index="92795" value="1"/>
  <variable name="X(19,51,16)" index="93589" value="1"/>
  <variable name="X(20,31,494)" index="94860" value="1"/>
  <variable name="X(20,52,17)" index="95176" value="1"/>
  <variable name="X(21,15,505)" index="96457" value="1"/>
  <variable name="X(21,53,18)" index="96763" value="1"/>
  <variable name="X(22,26,530)" index="98068" value="1"/>
  <variable name="X(22,54,73)" index="98404" value="1"/>
  <variable name="X(23,4,28)" index="99152" value="1"/>
  <variable name="X(23,31,1)" index="99918" value="1"/>
  <variable name="X(23,55,19)" index="100729" value="1"/>
  <variable name="X(24,3,2)" index="101505" value="1"/>
  <variable name="X(24,4,54)" index="102350" value="1"/>
  <variable name="X(24,56,20)" index="103109" value="1"/>
  <variable name="X(25,15,612)" index="104494" value="1"/>
  <variable name="X(25,57,21)" index="104696" value="1"/>
  <variable name="X(26,15,12)" index="105480" value="1"/>
  <variable name="X(26,22,73)" index="106334" value="1"/>
  <variable name="X(26,27,378)" index="107432" value="1"/>
  <variable name="X(26,58,22)" index="107869" value="1"/>
  <variable name="X(27,12,378)" index="109018" value="1"/>
  <variable name="X(27,26,12)" index="109445" value="1"/>
  <variable name="X(27,59,23)" index="110249" value="1"/>
  <variable name="X(28,13,36)" index="111055" value="1"/>
  <variable name="X(28,29,63)" index="111875" value="1"/>
  <variable name="X(28,60,24)" index="112629" value="1"/>
  <variable name="X(29,12,63)" index="113461" value="1"/>
  <variable name="X(29,28,36)" index="114227" value="1"/>
  <variable name="X(29,61,25)" index="115009" value="1"/>
  <variable name="X(30,31,717)" index="116494" value="1"/>
  <variable name="X(30,62,26)" index="116596" value="1"/>
  <variable name="X(31,7,1)" index="117364" value="1"/>
  <variable name="X(31,12,9)" index="118165" value="1"/>
  <variable name="X(31,14,11)" index="118960" value="1"/>
  <variable name="X(31,20,17)" index="119759" value="1"/>
  <variable name="X(31,23,28)" index="120563" value="1"/>
  <variable name="X(31,30,26)" index="121354" value="1"/>
  <variable name="X(31,32,83)" index="122204" value="1"/>
  <variable name="X(31,63,27)" index="122941" value="1"/>
  <variable name="X(32,31,770)" index="124477" value="1"/>
  <variable name="X(32,64,83)" index="124583" value="1"/>
 </variables>
</CPLEXSolution>
